p tw 50 75
3 4
26 27
35 36
16 17
44 45
12 13
15 36
21 22
22 23
31 32
8 9
40 41
3 28
49 50
4 27
17 18
20 41
14 37
27 28
25 26
36 37
13 14
45 46
8 33
9 32
19 42
1 30
32 33
2 29
18 19
41 42
4 5
13 38
5 6
24 47
6 35
25 46
7 34
14 15
23 24
46 47
18 43
9 10
1 2
10 11
12 39
19 20
28 29
22 49
37 38
23 48
6 7
15 16
24 25
47 48
17 44
11 40
33 34
42 43
43 44
20 21
29 30
16 45
38 39
1 50
39 40
48 49
34 35
2 3
5 26
11 12
21 50
30 31
7 8
10 31
